(set-info :smt-lib-version 2.6)
(set-logic AUFBVFPDTNIRA)
(set-info :source |
Generated by: AdaCore
Generated on: 2020-03-06
Generator: SPARK
Application: Program verification for Ada
Target solver: CVC4
|)
(set-info :license "https://creativecommons.org/licenses/by/4.0/")
(set-info :category "industrial")
(set-info :status unknown)
;;; generated by SMT-LIB2 driver
;;; SMT-LIB2 driver: bit-vectors, common part
;;; SMT-LIB2: integer arithmetic
(declare-sort string 0)

(declare-datatypes ((tuple0 0))
(((Tuple0))))
(declare-sort us_private 0)

(declare-fun private__bool_eq (us_private us_private) Bool)

(declare-const us_null_ext__ us_private)

(declare-sort us_type_of_heap 0)

(declare-datatypes ((us_type_of_heap__ref 0))
(((us_type_of_heap__refqtmk (us_type_of_heap__content us_type_of_heap)))))
(declare-sort us_image 0)

(declare-datatypes ((int__ref 0))
(((int__refqtmk (int__content Int)))))
(declare-datatypes ((bool__ref 0))
(((bool__refqtmk (bool__content Bool)))))
(declare-datatypes ((us_fixed__ref 0))
(((us_fixed__refqtmk (us_fixed__content Int)))))
(declare-datatypes ((real__ref 0))
(((real__refqtmk (real__content Real)))))
(declare-datatypes ((us_private__ref 0))
(((us_private__refqtmk (us_private__content us_private)))))
(define-fun int__ref___projection ((a int__ref)) Int (int__content a))

(define-fun us_fixed__ref___projection ((a us_fixed__ref)) Int (us_fixed__content
                                                               a))

(define-fun bool__ref___projection ((a bool__ref)) Bool (bool__content a))

(define-fun real__ref___projection ((a real__ref)) Real (real__content a))

(define-fun us_private__ref___projection ((a us_private__ref)) us_private 
  (us_private__content a))

(define-fun in_range ((x Int)) Bool (or (= x 0) (= x 1)))

(declare-fun attr__ATTRIBUTE_IMAGE (Bool) us_image)

(declare-fun attr__ATTRIBUTE_VALUE__pre_check (us_image) Bool)

(declare-fun attr__ATTRIBUTE_VALUE (us_image) Bool)

(declare-sort integer 0)

(declare-fun integerqtint (integer) Int)

;; integer'axiom
  (assert
  (forall ((i integer))
  (and (<= (- 2147483648) (integerqtint i)) (<= (integerqtint i) 2147483647))))

(define-fun in_range1 ((x Int)) Bool (and (<= (- 2147483648) x)
                                     (<= x 2147483647)))

(declare-fun attr__ATTRIBUTE_IMAGE1 (Int) us_image)

(declare-fun attr__ATTRIBUTE_VALUE__pre_check1 (us_image) Bool)

(declare-fun attr__ATTRIBUTE_VALUE1 (us_image) Int)

(declare-fun user_eq (integer integer) Bool)

(declare-const dummy integer)

(declare-datatypes ((integer__ref 0))
(((integer__refqtmk (integer__content integer)))))
(define-fun integer__ref_integer__content__projection ((a integer__ref)) integer 
  (integer__content a))

(define-fun dynamic_invariant ((temp___expr_18 Int) (temp___is_init_14 Bool)
  (temp___skip_constant_15 Bool) (temp___do_toplevel_16 Bool)
  (temp___do_typ_inv_17 Bool)) Bool (=>
                                    (or (= temp___is_init_14 true)
                                    (<= (- 2147483648) 2147483647))
                                    (in_range1 temp___expr_18)))

(declare-const c Int)

(declare-const attr__ATTRIBUTE_ADDRESS Int)

(declare-datatypes ((map__ref 0))
(((map__refqtmk (map__content (Array Int Bool))))))
(declare-fun slide ((Array Int Bool) Int Int) (Array Int Bool))

;; slide_eq
  (assert
  (forall ((a (Array Int Bool)))
  (forall ((first Int))
  (! (= (slide a first first) a) :pattern ((slide a first first)) ))))

;; slide_def
  (assert
  (forall ((a (Array Int Bool)))
  (forall ((old_first Int))
  (forall ((new_first Int))
  (forall ((i Int))
  (! (= (select (slide a old_first new_first) i) (select a (- i (- new_first old_first)))) :pattern ((select 
  (slide a old_first new_first) i)) ))))))

(define-fun bool_eq ((a (Array Int Bool)) (a__first Int) (a__last Int)
  (b (Array Int Bool)) (b__first Int)
  (b__last Int)) Bool (ite (and
                           (ite (<= a__first a__last)
                           (and (<= b__first b__last)
                           (= (- a__last a__first) (- b__last b__first)))
                           (< b__last b__first))
                           (forall ((temp___idx_154 Int))
                           (=>
                           (and (<= a__first temp___idx_154)
                           (<= temp___idx_154 a__last))
                           (= (ite (select a temp___idx_154) 1 0) (ite (select b (+ (- b__first a__first) temp___idx_154)) 1 0)))))
                      true false))

;; bool_eq_rev
  (assert
  (forall ((a (Array Int Bool)) (b (Array Int Bool)))
  (forall ((a__first Int) (a__last Int) (b__first Int) (b__last Int))
  (=> (= (bool_eq b b__first b__last a a__first a__last) true)
  (and
  (ite (<= a__first a__last)
  (and (<= b__first b__last) (= (- a__last a__first) (- b__last b__first)))
  (< b__last b__first))
  (forall ((temp___idx_154 Int))
  (=> (and (<= a__first temp___idx_154) (<= temp___idx_154 a__last))
  (= (ite (select a temp___idx_154) 1 0) (ite (select b (+ (- b__first a__first) temp___idx_154)) 1 0)))))))))

(declare-const attr__ATTRIBUTE_ADDRESS1 Int)

(declare-const attr__ATTRIBUTE_ADDRESS2 Int)

(declare-sort t1b 0)

(declare-fun t1bqtint (t1b) Int)

;; t1b'axiom
  (assert (forall ((i t1b)) (and (<= 1 (t1bqtint i)) (<= (t1bqtint i) 100))))

(define-fun in_range2 ((x Int)) Bool (and (<= 1 x) (<= x 100)))

(declare-fun attr__ATTRIBUTE_IMAGE2 (Int) us_image)

(declare-fun attr__ATTRIBUTE_VALUE__pre_check2 (us_image) Bool)

(declare-fun attr__ATTRIBUTE_VALUE2 (us_image) Int)

(declare-fun user_eq1 (t1b t1b) Bool)

(declare-const dummy1 t1b)

(declare-datatypes ((t1b__ref 0))
(((t1b__refqtmk (t1b__content t1b)))))
(define-fun t1b__ref_t1b__content__projection ((a t1b__ref)) t1b (t1b__content
                                                                 a))

(assert
;; defqtvc
 ;; File "counterex_forall.ads", line 10, characters 0-0
  (not
  (forall ((r (Array Int Bool)) (x Int) (r1 (Array Int Bool)) (x1 Int)
  (x2 Int) (r2 (Array Int Bool)) (i Int))
  (=> (dynamic_invariant c true false true true)
  (=> (= x 1)
  (=> (= (and (ite (<= 1 x) true false) (ite (<= x 100) true false)) true)
  (=>
  (forall ((i1 Int))
  (=> (and (<= 1 i1) (<= i1 x1)) (= (= (select r1 i1) true) (= i1 (+ c 1)))))
  (=>
  (= (and (ite (and
               (forall ((temp___183 Int))
               (=>
               (and (<= (- 2147483648) temp___183)
               (<= temp___183 2147483647))
               (=>
               (or (< 100 temp___183)
               (or (< temp___183 1) (< x1 temp___183)))
               (= (select r1 temp___183) (select r temp___183))))) (in_range2
               x1))
          true false) (ite (and (<= 1 x1) (<= x1 100)) true false)) true)
  (=> (not (= x1 100))
  (=> (= x2 (+ x1 1))
  (=> (= r2 (store r1 x2 (ite (= x2 c) true false)))
  (=> (<= 1 i) (=> (<= i x2) (=> (= (select r2 i) true) (= i (+ c 1))))))))))))))))
(check-sat)
